p edge 120 480
e 1 12
e 1 20
e 1 73
e 1 95
e 2 6
e 2 30
e 2 101
e 2 113
e 3 27
e 3 68
e 3 119
e 3 119
e 4 44
e 4 55
e 4 62
e 4 111
e 5 49
e 5 65
e 5 92
e 5 107
e 6 22
e 6 59
e 6 63
e 6 71
e 7 16
e 7 43
e 7 86
e 7 116
e 8 14
e 8 100
e 8 108
e 8 109
e 9 44
e 9 85
e 9 96
e 9 115
e 10 76
e 10 86
e 10 94
e 10 106
e 11 34
e 11 38
e 11 72
e 11 79
e 12 19
e 12 41
e 12 65
e 12 109
e 13 9
e 13 48
e 13 83
e 13 90
e 14 9
e 14 31
e 14 52
e 14 77
e 15 16
e 15 71
e 15 73
e 15 95
e 16 11
e 16 13
e 16 29
e 16 106
e 17 28
e 17 64
e 17 71
e 17 89
e 18 8
e 18 44
e 18 102
e 18 113
e 19 29
e 19 70
e 19 88
e 19 114
e 20 4
e 20 17
e 20 55
e 20 65
e 21 16
e 21 42
e 21 88
e 21 89
e 22 6
e 22 72
e 22 76
e 22 103
e 23 24
e 23 34
e 23 108
e 23 115
e 24 17
e 24 25
e 24 32
e 24 34
e 25 76
e 25 88
e 25 96
e 25 107
e 26 16
e 26 91
e 26 100
e 26 109
e 27 57
e 27 69
e 27 111
e 27 120
e 28 7
e 28 23
e 28 43
e 28 54
e 29 26
e 29 98
e 29 112
e 29 120
e 30 3
e 30 57
e 30 112
e 30 120
e 31 1
e 31 3
e 31 87
e 31 91
e 32 16
e 32 34
e 32 97
e 32 105
e 33 21
e 33 46
e 33 80
e 33 112
e 34 2
e 34 24
e 34 45
e 34 105
e 35 12
e 35 19
e 35 91
e 35 91
e 36 5
e 36 21
e 36 53
e 36 104
e 37 19
e 37 43
e 37 103
e 37 105
e 38 54
e 38 65
e 38 89
e 38 109
e 39 66
e 39 96
e 39 97
e 39 108
e 40 2
e 40 79
e 40 92
e 40 103
e 41 2
e 41 36
e 41 70
e 41 73
e 42 9
e 42 29
e 42 38
e 42 41
e 43 33
e 43 62
e 43 79
e 43 88
e 44 48
e 44 73
e 44 78
e 44 82
e 45 18
e 45 91
e 45 115
e 45 119
e 46 2
e 46 45
e 46 70
e 46 87
e 47 68
e 47 71
e 47 104
e 47 105
e 48 37
e 48 72
e 48 79
e 48 116
e 49 9
e 49 18
e 49 67
e 49 83
e 50 10
e 50 40
e 50 41
e 50 47
e 51 3
e 51 29
e 51 49
e 51 103
e 52 11
e 52 12
e 52 76
e 52 93
e 53 14
e 53 47
e 53 64
e 53 91
e 54 18
e 54 35
e 54 38
e 54 93
e 55 5
e 55 8
e 55 11
e 55 85
e 56 8
e 56 9
e 56 83
e 56 94
e 57 26
e 57 35
e 57 35
e 57 106
e 58 18
e 58 21
e 58 64
e 58 117
e 59 3
e 59 73
e 59 82
e 59 104
e 60 16
e 60 41
e 60 56
e 60 90
e 61 13
e 61 92
e 61 94
e 61 118
e 62 33
e 62 84
e 62 97
e 62 120
e 63 38
e 63 60
e 63 64
e 63 98
e 64 24
e 64 73
e 64 75
e 64 94
e 65 22
e 65 31
e 65 80
e 65 91
e 66 53
e 66 64
e 66 80
e 66 116
e 67 30
e 67 31
e 67 65
e 67 78
e 68 1
e 68 40
e 68 91
e 68 109
e 69 1
e 69 43
e 69 66
e 69 115
e 70 35
e 70 73
e 70 82
e 70 104
e 71 53
e 71 63
e 71 95
e 71 110
e 72 19
e 72 58
e 72 62
e 72 119
e 73 1
e 73 37
e 73 115
e 73 117
e 74 4
e 74 46
e 74 69
e 74 103
e 75 6
e 75 20
e 75 28
e 75 53
e 76 1
e 76 61
e 76 100
e 76 110
e 77 23
e 77 27
e 77 42
e 77 44
e 78 36
e 78 54
e 78 112
e 78 114
e 79 30
e 79 39
e 79 54
e 79 74
e 80 7
e 80 19
e 80 56
e 80 74
e 81 30
e 81 50
e 81 60
e 81 91
e 82 25
e 82 29
e 82 30
e 82 70
e 83 25
e 83 57
e 83 64
e 83 87
e 84 12
e 84 39
e 84 75
e 84 102
e 85 1
e 85 24
e 85 36
e 85 69
e 86 29
e 86 43
e 86 67
e 86 110
e 87 22
e 87 23
e 87 51
e 87 72
e 88 6
e 88 58
e 88 83
e 88 104
e 89 29
e 89 32
e 89 79
e 89 93
e 90 35
e 90 89
e 90 111
e 90 115
e 91 50
e 91 52
e 91 75
e 91 86
e 92 15
e 92 35
e 92 72
e 92 76
e 93 7
e 93 42
e 93 91
e 93 100
e 94 36
e 94 52
e 94 72
e 94 117
e 95 12
e 95 28
e 95 64
e 95 66
e 96 45
e 96 51
e 96 54
e 96 102
e 97 2
e 97 67
e 97 68
e 97 102
e 98 5
e 98 33
e 98 52
e 98 73
e 99 23
e 99 27
e 99 87
e 99 89
e 100 44
e 100 55
e 100 75
e 100 112
e 101 35
e 101 48
e 101 81
e 101 117
e 102 39
e 102 68
e 102 81
e 102 110
e 103 24
e 103 39
e 103 65
e 103 66
e 104 12
e 104 35
e 104 66
e 104 88
e 105 3
e 105 10
e 105 23
e 105 98
e 106 33
e 106 68
e 106 80
e 106 96
e 107 7
e 107 77
e 107 97
e 107 120
e 108 3
e 108 24
e 108 28
e 108 60
e 109 54
e 109 84
e 109 88
e 109 118
e 110 5
e 110 38
e 110 100
e 110 102
e 111 26
e 111 53
e 111 59
e 111 85
e 112 70
e 112 91
e 112 93
e 112 119
e 113 3
e 113 14
e 113 35
e 113 109
e 114 12
e 114 62
e 114 68
e 114 82
e 115 9
e 115 15
e 115 31
e 115 71
e 116 29
e 116 46
e 116 64
e 116 89
e 117 20
e 117 23
e 117 54
e 117 96
e 118 35
e 118 42
e 118 95
e 118 101
e 119 2
e 119 88
e 119 94
e 119 97
e 120 60
e 120 67
e 120 96
e 120 99
